; benchmark generated from python API
(set-info :status unknown)
(declare-datatypes ((IntState 0)) (((Mk1 (val1 Int)) (Mk2 (val2 Int)))))
 (declare-fun c_main_~i~6 () Int)
(declare-fun c_main_~j~6 () Int)
(declare-fun c_main_~k~6 () Int)
(assert
 (let (($x11 (<= c_main_~j~6 (+ (* 2 c_main_~i~6) 1))))
 (let (($x145 (<= c_main_~j~6 (+ (* 2 c_main_~i~6) 2))))
 (let (($x173 (<= c_main_~i~6 3)))
 (let ((?x172 (* 2 c_main_~i~6)))
 (let (($x149 (<= c_main_~j~6 ?x172)))
 (let (($x64 (exists ((main_~i~6_st IntState) (val!96 Int) )(let ((?x56 (val2 main_~i~6_st)))
 (let (($x106 (<= ?x56 3)))
 (let (($x139 (and (<= c_main_~j~6 (+ (* 2 ?x56) 2)) $x106 (<= ?x56 c_main_~k~6))))
 (let (($x52 (not (= main_~i~6_st (Mk1 val!96)))))
 (and $x52 $x139))))))
 ))
 (let (($x58 (<= c_main_~i~6 2)))
 (let (($x171 (exists ((main_~i~6 Int) )(let (($x159 (<= main_~i~6 3)))
 (and (<= c_main_~j~6 (+ (* 2 main_~i~6) 2)) $x159 (<= main_~i~6 c_main_~k~6))))
 ))
 (let (($x90 (<= c_main_~i~6 1)))
 (and (and $x90 $x58 $x171 $x149 $x173 $x145 $x11) (not (and $x58 $x64 $x149 $x173 $x145 $x11)))))))))))))
(check-sat)
